
Gurobi 7.5.2 (linux64, Python) logging started Sat 21 Apr 2018 10:32:23 PM EDT

Academic license - for non-commercial use only
Read MPS format model from file examples/SIPLIB/sslp/sslp_5_25_50.mps
Reading time = 0.00 seconds
sslp_5_1_25: 31 rows, 135 columns, 261 nonzeros
Read MPS format model from file examples/SIPLIB/sslp/sslp_5_25_50.mps
Reading time = 0.00 seconds
sslp_5_1_25: 31 rows, 135 columns, 261 nonzeros
Read MPS format model from file examples/SIPLIB/sslp/sslp_5_25_50.mps
Reading time = 0.00 seconds
sslp_5_1_25: 31 rows, 135 columns, 261 nonzeros
Read MPS format model from file examples/SIPLIB/sslp/sslp_5_25_50.mps
Reading time = 0.00 seconds
sslp_5_1_25: 31 rows, 135 columns, 261 nonzeros
Read MPS format model from file examples/SIPLIB/sslp/sslp_5_25_50.mps
Reading time = 0.00 seconds
sslp_5_1_25: 31 rows, 135 columns, 261 nonzeros

Gurobi 7.5.2 (linux64, Python) logging started Sun 22 Apr 2018 12:06:18 AM EDT

Academic license - for non-commercial use only
Read MPS format model from file examples/SIPLIB/sslp/sslp_5_25_50.mps
Reading time = 0.00 seconds
sslp_5_1_25: 31 rows, 135 columns, 261 nonzeros
Read MPS format model from file examples/SIPLIB/sslp/sslp_5_25_50.mps
Reading time = 0.00 seconds
sslp_5_1_25: 31 rows, 135 columns, 261 nonzeros
Read MPS format model from file examples/SIPLIB/sslp/sslp_5_25_50.mps
Reading time = 0.00 seconds
sslp_5_1_25: 31 rows, 135 columns, 261 nonzeros
Read MPS format model from file examples/SIPLIB/sslp/sslp_5_25_50.mps
Reading time = 0.00 seconds
sslp_5_1_25: 31 rows, 135 columns, 261 nonzeros
Read MPS format model from file examples/SIPLIB/sslp/sslp_5_25_50.mps
Reading time = 0.00 seconds
sslp_5_1_25: 31 rows, 135 columns, 261 nonzeros

Gurobi 7.5.2 (linux64, Python) logging started Sun 22 Apr 2018 12:25:44 AM EDT

Academic license - for non-commercial use only
Read MPS format model from file examples/SIPLIB/sslp/sslp_5_25_50.mps
Reading time = 0.00 seconds
sslp_5_1_25: 31 rows, 135 columns, 261 nonzeros
Read MPS format model from file examples/SIPLIB/sslp/sslp_15_45_5.mps
Reading time = 0.01 seconds
SSLP_15_45_5: 61 rows, 705 columns, 1379 nonzeros
